p wcnf 120 1300
9 -116 -118 0
5 -116 117 0
3 -115 117 0
8 -113 116 0
2 -109 -117 0
10 -109 116 0
7 -108 -114 0
3 -107 112 0
6 -105 -118 0
3 -104 -118 0
4 -104 111 0
10 -104 115 0
7 -104 120 0
5 -103 -119 0
9 -103 -105 0
6 -102 -104 0
6 -102 115 0
5 -101 -115 0
6 -101 -110 0
8 -101 -108 0
9 -100 -109 0
3 -100 -101 0
8 -99 -113 0
5 -99 100 0
1 -98 -114 0
3 -98 105 0
7 -95 -96 0
4 -95 104 0
10 -94 98 0
9 -92 110 0
4 -92 120 0
8 -91 -116 0
4 -91 -101 0
7 -90 -117 0
6 -90 -109 0
5 -90 108 0
7 -90 111 0
3 -89 -109 0
7 -89 -108 0
2 -89 -96 0
5 -89 117 0
1 -88 -110 0
2 -88 -104 0
2 -88 -103 0
5 -88 111 0
1 -88 114 0
7 -87 -97 0
1 -87 112 0
5 -86 -110 0
2 -86 -96 0
8 -86 101 0
4 -86 103 0
4 -86 108 0
7 -85 -120 0
8 -85 -89 0
5 -85 100 0
8 -85 108 0
5 -84 85 0
7 -84 87 0
8 -84 100 0
4 -83 89 0
2 -83 104 0
7 -83 112 0
7 -82 92 0
7 -81 -119 0
3 -81 -95 0
2 -81 97 0
4 -81 102 0
5 -81 114 0
8 -80 -116 0
5 -80 -115 0
8 -80 -108 0
9 -80 90 0
6 -79 -120 0
9 -79 84 0
4 -79 103 0
6 -78 -85 0
6 -78 -81 0
4 -78 83 0
1 -78 106 0
7 -77 -86 0
2 -77 82 0
5 -77 89 0
2 -77 102 0
8 -76 -100 0
3 -76 -93 0
5 -76 85 0
7 -76 112 0
7 -76 114 0
2 -76 119 0
5 -75 -117 0
10 -75 -109 0
3 -75 88 0
2 -75 102 0
7 -75 117 0
9 -74 84 0
4 -74 99 0
8 -74 109 0
3 -73 -118 0
8 -73 -106 0
7 -73 -104 0
7 -73 -92 0
6 -72 -119 0
5 -72 -84 0
3 -72 95 0
5 -72 103 0
8 -72 120 0
9 -71 -77 0
10 -71 -76 0
2 -71 77 0
9 -71 96 0
7 -70 -80 0
4 -70 81 0
4 -70 98 0
8 -69 -71 0
2 -69 70 0
5 -69 91 0
3 -68 -95 0
8 -68 -85 0
2 -68 -81 0
4 -68 -76 0
3 -68 87 0
2 -68 88 0
6 -68 89 0
4 -67 -112 0
8 -67 -110 0
6 -67 -100 0
7 -67 -94 0
6 -67 -90 0
8 -67 -68 0
4 -67 72 0
3 -67 85 0
5 -67 99 0
9 -67 108 0
7 -66 -119 0
7 -66 99 0
4 -66 106 0
5 -66 117 0
6 -65 -97 0
4 -65 -75 0
6 -65 -69 0
5 -65 83 0
1 -65 103 0
9 -64 -98 0
7 -64 -90 0
8 -64 -84 0
10 -64 -81 0
3 -64 -77 0
10 -64 86 0
8 -64 95 0
4 -63 -91 0
4 -63 -73 0
10 -63 117 0
5 -62 -108 0
10 -62 -91 0
4 -62 -83 0
2 -62 -64 0
5 -62 85 0
10 -62 100 0
8 -62 103 0
3 -62 111 0
4 -62 114 0
9 -61 -116 0
7 -61 -108 0
4 -61 -97 0
6 -61 -66 0
4 -61 83 0
7 -61 85 0
1 -61 97 0
9 -61 111 0
2 -61 117 0
6 -60 -119 0
3 -60 -95 0
2 -60 -84 0
5 -60 68 0
9 -60 105 0
9 -59 -100 0
5 -59 89 0
2 -59 106 0
8 -59 120 0
3 -58 -117 0
5 -58 -89 0
3 -58 -78 0
3 -58 -66 0
8 -58 69 0
2 -57 -119 0
6 -57 -87 0
10 -57 -58 0
6 -57 85 0
6 -57 90 0
7 -57 105 0
8 -56 -73 0
9 -56 -65 0
7 -56 61 0
5 -56 90 0
3 -56 96 0
3 -56 105 0
8 -55 -82 0
9 -55 103 0
3 -54 -100 0
6 -54 -94 0
10 -54 57 0
9 -54 60 0
8 -54 70 0
1 -54 72 0
4 -54 86 0
8 -54 110 0
9 -53 -84 0
8 -53 -71 0
9 -53 -61 0
8 -53 -59 0
10 -53 67 0
4 -52 -108 0
9 -52 -106 0
2 -52 -60 0
2 -52 77 0
1 -52 97 0
7 -51 -72 0
2 -51 64 0
7 -51 83 0
3 -51 84 0
9 -51 99 0
5 -51 104 0
2 -51 119 0
5 -50 -108 0
9 -50 -89 0
3 -50 -72 0
7 -50 -58 0
6 -50 60 0
2 -50 75 0
9 -50 95 0
3 -50 104 0
2 -49 -113 0
8 -49 -71 0
10 -49 -63 0
2 -49 -57 0
2 -49 55 0
8 -48 -86 0
2 -48 -80 0
8 -48 -77 0
7 -48 -54 0
8 -48 61 0
8 -48 63 0
10 -47 -115 0
7 -47 -84 0
9 -47 -77 0
2 -47 -76 0
8 -47 -74 0
6 -47 -67 0
3 -47 -53 0
4 -47 51 0
8 -47 75 0
2 -47 78 0
8 -46 -88 0
8 -46 -82 0
6 -46 -57 0
7 -46 71 0
2 -46 110 0
3 -46 118 0
3 -45 -112 0
3 -45 -71 0
3 -45 -65 0
5 -45 117 0
4 -44 -110 0
10 -44 -80 0
5 -44 -62 0
5 -44 -61 0
1 -44 47 0
2 -43 -118 0
6 -43 -114 0
9 -43 -81 0
8 -43 -62 0
4 -43 -60 0
7 -43 -50 0
8 -43 45 0
1 -43 50 0
6 -43 63 0
9 -43 66 0
8 -43 83 0
2 -43 97 0
2 -42 -89 0
2 -42 -81 0
9 -42 -80 0
2 -42 -66 0
9 -42 50 0
7 -41 -120 0
7 -41 -119 0
6 -41 -69 0
8 -41 -57 0
10 -41 -49 0
8 -41 59 0
10 -41 70 0
2 -41 71 0
3 -41 91 0
4 -40 -88 0
2 -40 -80 0
7 -40 -67 0
8 -40 46 0
2 -40 58 0
8 -40 60 0
4 -40 86 0
10 -40 94 0
6 -40 95 0
7 -40 118 0
6 -39 -108 0
4 -39 -95 0
7 -39 -86 0
2 -39 -52 0
2 -39 -40 0
5 -39 44 0
3 -39 51 0
3 -39 71 0
6 -39 76 0
2 -38 -100 0
4 -38 -77 0
5 -38 41 0
8 -38 70 0
2 -38 108 0
10 -38 120 0
6 -37 -83 0
2 -37 -67 0
8 -37 -63 0
5 -37 -59 0
3 -37 -52 0
1 -37 -40 0
8 -37 -39 0
4 -37 43 0
7 -37 57 0
6 -37 61 0
5 -37 87 0
5 -37 108 0
8 -36 -44 0
5 -36 39 0
10 -36 47 0
5 -36 87 0
10 -36 91 0
3 -36 102 0
1 -36 117 0
2 -35 -91 0
4 -35 -83 0
5 -35 -68 0
4 -35 53 0
6 -35 54 0
10 -35 69 0
5 -35 70 0
10 -35 75 0
5 -35 100 0
3 -34 -93 0
1 -34 -78 0
5 -34 -46 0
8 -34 40 0
2 -34 57 0
3 -34 58 0
3 -34 75 0
4 -34 79 0
3 -34 87 0
1 -33 -84 0
7 -33 -73 0
9 -33 -47 0
6 -33 -38 0
1 -33 58 0
3 -33 60 0
4 -33 61 0
5 -32 -71 0
3 -32 -64 0
8 -32 -44 0
5 -32 44 0
5 -32 49 0
8 -32 61 0
6 -32 64 0
8 -32 82 0
3 -32 84 0
9 -31 -114 0
5 -31 -96 0
3 -31 -60 0
5 -31 48 0
4 -31 51 0
7 -31 72 0
7 -30 -116 0
5 -30 -110 0
2 -30 -106 0
5 -30 -68 0
6 -30 -53 0
4 -30 -41 0
7 -30 -40 0
8 -30 -34 0
6 -30 66 0
8 -29 -107 0
5 -29 -76 0
5 -29 -70 0
3 -29 -61 0
5 -29 -44 0
7 -29 -36 0
6 -29 33 0
9 -29 34 0
9 -29 44 0
4 -29 57 0
4 -29 107 0
4 -28 -110 0
2 -28 -93 0
9 -28 53 0
2 -28 60 0
5 -27 -115 0
9 -27 -111 0
6 -27 -109 0
7 -27 -92 0
4 -27 33 0
9 -27 35 0
4 -27 59 0
10 -27 101 0
4 -27 105 0
5 -26 -88 0
5 -26 -84 0
9 -26 -73 0
8 -26 -66 0
2 -26 41 0
7 -26 44 0
4 -26 113 0
8 -25 -108 0
2 -25 -97 0
8 -25 -78 0
2 -25 37 0
6 -25 71 0
5 -24 -107 0
7 -24 -97 0
5 -24 -70 0
4 -24 -47 0
1 -24 41 0
8 -24 78 0
7 -24 109 0
2 -23 -119 0
8 -23 -98 0
8 -23 -85 0
6 -23 -65 0
7 -23 -54 0
5 -23 -25 0
3 -23 34 0
9 -23 56 0
4 -23 61 0
6 -23 101 0
9 -23 103 0
7 -22 -109 0
10 -22 -99 0
3 -22 -69 0
6 -22 -36 0
7 -22 -31 0
4 -22 70 0
2 -22 103 0
2 -22 106 0
3 -21 -89 0
3 -21 -74 0
9 -21 -51 0
3 -21 -32 0
8 -21 -31 0
4 -21 69 0
9 -21 96 0
3 -21 108 0
7 -21 116 0
9 -20 -105 0
2 -20 -56 0
4 -20 -51 0
2 -20 23 0
9 -20 40 0
3 -20 42 0
7 -20 56 0
5 -19 -112 0
6 -19 -78 0
8 -19 -22 0
5 -19 40 0
9 -19 54 0
4 -19 75 0
3 -18 -107 0
6 -18 -97 0
3 -18 -73 0
6 -18 -65 0
2 -18 -31 0
10 -18 -25 0
9 -18 36 0
3 -18 38 0
2 -18 44 0
1 -18 54 0
5 -18 79 0
9 -18 99 0
3 -17 -91 0
3 -17 -86 0
3 -17 -59 0
3 -17 -26 0
6 -17 113 0
9 -16 -114 0
2 -16 -92 0
6 -16 -63 0
4 -16 -30 0
3 -16 -26 0
5 -16 53 0
5 -16 55 0
9 -16 64 0
9 -16 88 0
1 -16 119 0
7 -15 -114 0
4 -15 -89 0
9 -15 -83 0
1 -15 -80 0
6 -15 -79 0
6 -15 -63 0
4 -15 20 0
2 -15 29 0
6 -15 102 0
4 -15 112 0
9 -15 114 0
8 -14 -120 0
4 -14 -83 0
9 -14 -81 0
4 -14 -64 0
4 -14 -43 0
3 -14 -30 0
6 -14 -25 0
6 -14 -17 0
5 -14 -15 0
2 -14 22 0
5 -14 27 0
6 -14 41 0
7 -14 50 0
8 -14 67 0
8 -14 71 0
2 -14 74 0
3 -14 87 0
7 -14 100 0
2 -13 -68 0
3 -13 21 0
4 -13 71 0
4 -13 98 0
3 -12 -41 0
4 -12 -24 0
9 -12 20 0
8 -12 29 0
7 -12 39 0
1 -12 50 0
4 -11 -120 0
9 -11 -94 0
9 -11 -56 0
2 -11 -38 0
3 -11 -33 0
9 -11 -28 0
5 -11 13 0
6 -11 24 0
2 -11 27 0
1 -11 31 0
2 -11 34 0
5 -11 39 0
2 -11 58 0
6 -11 91 0
10 -10 -66 0
8 -10 -55 0
4 -10 -51 0
8 -10 -36 0
9 -10 -15 0
6 -10 96 0
4 -9 -83 0
1 -9 -56 0
8 -9 -55 0
7 -9 -48 0
4 -9 -19 0
1 -9 11 0
10 -9 17 0
4 -9 43 0
8 -9 61 0
7 -9 118 0
4 -8 -105 0
2 -8 -96 0
6 -8 -43 0
3 -8 -36 0
3 -8 -19 0
8 -8 30 0
2 -8 45 0
7 -8 63 0
4 -8 66 0
2 -8 92 0
7 -8 114 0
5 -7 -120 0
7 -7 -76 0
8 -7 -65 0
10 -7 -60 0
7 -7 -42 0
6 -7 -30 0
3 -7 -29 0
4 -7 20 0
6 -7 84 0
8 -7 95 0
8 -7 112 0
6 -6 -118 0
7 -6 -113 0
5 -6 -108 0
9 -6 -45 0
7 -6 -20 0
5 -6 14 0
3 -6 22 0
5 -6 69 0
1 -6 88 0
6 -6 97 0
5 -5 -92 0
6 -5 -62 0
8 -5 -55 0
7 -5 -43 0
4 -5 -40 0
9 -5 -28 0
5 -5 -12 0
7 -5 13 0
2 -5 26 0
2 -5 59 0
2 -5 75 0
7 -5 101 0
9 -4 -87 0
1 -4 -86 0
4 -4 -63 0
6 -4 -53 0
4 -4 -50 0
7 -4 -45 0
1 -4 -44 0
2 -4 -26 0
5 -4 -10 0
6 -4 -8 0
8 -4 33 0
9 -4 36 0
6 -4 46 0
5 -4 66 0
4 -4 76 0
8 -4 90 0
8 -4 104 0
4 -4 115 0
4 -3 -46 0
4 -3 -37 0
9 -3 -32 0
3 -3 -29 0
1 -3 -25 0
3 -3 -8 0
2 -3 8 0
5 -3 25 0
9 -3 53 0
3 -3 63 0
6 -3 83 0
10 -3 87 0
9 -3 96 0
5 -3 106 0
1 -3 119 0
3 -2 -108 0
9 -2 -75 0
4 -2 49 0
10 -2 57 0
10 -2 66 0
5 -2 96 0
5 -2 100 0
6 -2 105 0
3 -1 -115 0
4 -1 -99 0
2 -1 -82 0
7 -1 -53 0
6 -1 -52 0
9 -1 -32 0
5 -1 -14 0
9 -1 -13 0
3 -1 28 0
7 -1 114 0
8 -1 119 0
5 1 -120 0
8 1 -117 0
1 1 -116 0
6 1 -105 0
2 1 -71 0
9 1 -34 0
8 1 -2 0
7 1 74 0
9 1 109 0
8 2 -96 0
2 2 -90 0
9 2 -83 0
1 2 -38 0
10 2 -33 0
4 2 -28 0
10 2 -12 0
9 2 -9 0
8 2 -7 0
5 2 -3 0
5 2 24 0
10 2 48 0
7 2 78 0
6 2 110 0
6 3 -104 0
4 3 -71 0
5 3 -66 0
1 3 -59 0
3 3 -53 0
8 3 -50 0
8 3 -39 0
1 3 -17 0
3 3 -9 0
5 3 9 0
2 3 10 0
8 3 20 0
6 3 26 0
10 3 41 0
6 3 67 0
3 4 -78 0
9 4 -65 0
4 4 -41 0
4 4 -33 0
9 4 -7 0
4 4 8 0
4 4 12 0
2 4 15 0
4 4 23 0
3 4 27 0
9 4 81 0
8 4 90 0
7 4 94 0
9 4 120 0
5 5 -96 0
4 5 -90 0
5 5 -75 0
8 5 -67 0
8 5 -57 0
5 5 -41 0
1 5 9 0
6 5 20 0
3 5 71 0
2 5 89 0
8 5 98 0
7 6 -102 0
2 6 -59 0
6 6 -38 0
3 6 -20 0
2 6 -13 0
3 6 64 0
6 6 83 0
1 6 92 0
6 6 109 0
9 6 116 0
9 7 -100 0
9 7 -99 0
2 7 -86 0
1 7 -53 0
3 7 -32 0
4 7 -29 0
9 7 -22 0
10 7 -12 0
2 7 13 0
8 7 16 0
5 7 18 0
4 7 63 0
3 7 94 0
3 7 105 0
3 7 106 0
8 7 108 0
4 7 114 0
8 8 -60 0
9 8 -16 0
4 8 10 0
6 8 39 0
6 8 41 0
6 8 56 0
2 8 89 0
9 9 -82 0
7 9 -28 0
3 9 -21 0
5 9 -18 0
8 9 29 0
8 9 89 0
3 9 94 0
7 9 100 0
7 10 -97 0
5 10 -76 0
7 10 -54 0
9 10 36 0
8 10 40 0
6 10 77 0
9 10 87 0
9 10 101 0
4 11 -40 0
5 11 -21 0
3 11 -17 0
6 11 54 0
7 11 105 0
4 11 116 0
4 12 -98 0
10 12 -80 0
2 12 -66 0
3 12 -57 0
4 12 -48 0
7 12 -47 0
9 12 -19 0
9 12 31 0
7 12 35 0
8 12 60 0
6 12 74 0
10 12 111 0
3 13 -87 0
4 13 -81 0
8 13 -43 0
5 13 -21 0
9 13 38 0
5 13 67 0
9 13 83 0
6 13 119 0
5 14 -79 0
7 14 -62 0
2 14 -15 0
4 14 79 0
5 14 83 0
5 15 -117 0
7 15 -67 0
7 15 -64 0
2 15 -50 0
4 15 -26 0
2 15 -21 0
5 15 35 0
4 15 91 0
2 16 -116 0
7 16 -99 0
7 16 -98 0
8 16 -73 0
6 16 -64 0
6 16 -44 0
5 16 60 0
4 16 70 0
2 16 86 0
5 16 88 0
6 16 117 0
4 17 -98 0
3 17 -70 0
10 17 25 0
4 17 33 0
7 17 54 0
9 17 72 0
8 17 89 0
2 17 105 0
5 17 116 0
10 18 -79 0
5 18 -78 0
10 18 -57 0
5 18 -44 0
2 18 48 0
7 18 58 0
6 18 61 0
5 19 -113 0
7 19 -75 0
10 19 -51 0
8 19 43 0
9 19 67 0
7 19 73 0
5 19 94 0
7 19 117 0
3 20 -93 0
1 20 -83 0
2 20 -74 0
6 20 -54 0
2 20 -33 0
6 20 -28 0
2 20 25 0
6 20 48 0
8 20 50 0
2 20 77 0
8 20 94 0
5 20 98 0
9 21 -88 0
7 21 -85 0
6 21 -78 0
5 21 -64 0
6 21 23 0
10 21 27 0
4 21 41 0
1 21 74 0
2 22 -95 0
1 22 -56 0
6 22 -30 0
7 22 56 0
7 22 76 0
5 22 85 0
5 22 120 0
6 23 -113 0
2 23 -93 0
9 23 -31 0
3 23 30 0
4 23 61 0
10 23 88 0
4 23 112 0
9 23 116 0
2 24 -101 0
9 24 -97 0
1 24 -86 0
6 24 -81 0
7 24 -61 0
2 24 -48 0
5 24 -32 0
2 24 -27 0
2 24 33 0
1 24 49 0
7 24 96 0
5 25 -120 0
6 25 -110 0
7 25 -93 0
9 25 -83 0
6 25 -76 0
8 25 -42 0
9 25 -36 0
2 25 53 0
5 25 81 0
6 25 90 0
6 25 96 0
9 25 99 0
3 26 -114 0
7 26 -79 0
8 26 -71 0
4 26 -35 0
1 26 46 0
8 27 -91 0
7 27 -90 0
10 27 -29 0
9 27 49 0
6 28 -108 0
1 28 -102 0
5 28 -96 0
3 28 -70 0
3 28 -69 0
9 28 77 0
3 28 81 0
3 28 112 0
9 29 -120 0
10 29 -113 0
8 29 -103 0
5 29 -85 0
7 29 -78 0
7 29 -71 0
1 29 -69 0
5 29 30 0
6 29 45 0
2 29 59 0
9 29 73 0
2 29 77 0
7 30 -67 0
7 30 -57 0
4 30 -49 0
4 30 -41 0
5 30 56 0
7 30 88 0
5 30 95 0
3 31 -111 0
4 31 -92 0
5 31 -52 0
2 31 67 0
9 31 81 0
5 31 104 0
6 31 115 0
2 32 -93 0
6 32 -86 0
4 32 -38 0
4 32 35 0
9 32 68 0
3 32 95 0
4 32 119 0
6 33 -103 0
7 33 -95 0
9 33 -65 0
3 33 -57 0
7 33 -42 0
4 33 -37 0
8 33 46 0
8 33 73 0
3 33 74 0
9 33 84 0
6 34 -59 0
9 34 -52 0
2 34 -44 0
9 34 -42 0
5 34 35 0
9 34 52 0
4 34 76 0
7 34 113 0
3 35 -101 0
7 35 -95 0
8 35 -78 0
2 35 49 0
2 35 62 0
4 35 65 0
3 36 -116 0
8 36 -76 0
7 36 64 0
6 36 81 0
6 36 87 0
9 36 88 0
9 36 90 0
3 36 93 0
6 37 -96 0
8 37 -75 0
5 37 -63 0
4 37 39 0
2 37 47 0
2 37 75 0
2 37 99 0
4 37 117 0
1 38 -101 0
7 38 -58 0
4 38 84 0
2 39 -103 0
6 39 -90 0
7 39 -66 0
10 39 -50 0
9 40 -119 0
4 40 -92 0
3 40 -75 0
6 40 -58 0
2 40 44 0
4 40 76 0
7 40 88 0
5 40 112 0
6 41 -100 0
5 41 -94 0
2 41 43 0
2 41 48 0
1 41 90 0
1 41 108 0
9 42 -116 0
3 42 -70 0
7 42 -48 0
8 42 102 0
7 42 103 0
10 42 104 0
9 42 113 0
8 42 119 0
2 43 -105 0
3 43 -100 0
8 43 -99 0
8 43 -87 0
6 43 -83 0
10 43 -74 0
4 43 -54 0
4 43 -46 0
10 43 50 0
2 43 109 0
7 44 -111 0
2 44 -107 0
7 44 -79 0
8 44 -45 0
5 44 49 0
5 44 96 0
3 44 103 0
10 45 -113 0
9 45 -98 0
4 45 -78 0
2 45 76 0
9 45 88 0
5 45 96 0
10 45 112 0
3 45 115 0
1 45 119 0
8 46 -115 0
9 46 -109 0
10 46 -77 0
7 46 54 0
7 46 91 0
2 46 93 0
9 47 -109 0
5 47 -84 0
8 47 -79 0
5 47 67 0
5 48 -118 0
2 48 -97 0
8 48 -90 0
5 48 50 0
3 48 59 0
5 49 -119 0
6 49 -111 0
9 49 -103 0
3 49 -100 0
2 49 -94 0
4 49 -92 0
5 49 -88 0
2 49 -55 0
3 49 78 0
8 49 88 0
2 50 -96 0
2 50 -69 0
3 50 -63 0
2 50 57 0
4 50 64 0
3 50 113 0
9 50 114 0
2 51 -117 0
3 51 -62 0
5 51 93 0
8 51 110 0
4 51 113 0
4 52 -107 0
4 52 -105 0
2 52 -88 0
8 52 -77 0
8 52 88 0
2 52 111 0
6 53 -110 0
2 53 -88 0
4 53 -74 0
10 53 -58 0
8 53 96 0
4 53 115 0
3 54 -73 0
8 54 62 0
7 54 63 0
7 54 96 0
9 54 117 0
9 54 118 0
6 55 -86 0
10 55 -77 0
10 55 63 0
8 55 78 0
2 55 100 0
4 55 115 0
10 56 -98 0
10 56 -93 0
5 56 -87 0
3 56 -83 0
5 56 -75 0
3 56 93 0
6 56 103 0
8 56 113 0
6 57 -100 0
6 57 -95 0
6 57 -93 0
4 57 -58 0
8 57 63 0
2 57 88 0
5 57 119 0
2 58 -74 0
2 58 -61 0
3 58 -60 0
4 58 63 0
3 58 114 0
1 59 -115 0
1 59 -100 0
9 59 -88 0
9 59 -87 0
9 59 72 0
5 59 76 0
9 59 78 0
9 59 84 0
3 59 87 0
1 59 91 0
2 59 107 0
2 59 112 0
10 60 -90 0
7 60 70 0
4 60 120 0
5 61 -70 0
9 61 75 0
9 61 88 0
3 62 -102 0
5 62 -82 0
5 62 -77 0
8 62 -68 0
8 62 65 0
3 63 -108 0
9 63 66 0
3 63 67 0
4 63 76 0
9 63 87 0
5 64 -98 0
7 64 -85 0
3 64 -72 0
5 64 -71 0
7 64 -68 0
2 64 108 0
4 65 -111 0
6 65 -92 0
6 65 -82 0
3 65 -71 0
4 65 80 0
8 65 82 0
3 65 102 0
6 65 109 0
9 66 -106 0
3 66 -80 0
3 66 100 0
3 67 -114 0
6 67 73 0
2 67 74 0
3 67 92 0
8 68 73 0
6 68 96 0
7 70 -105 0
6 70 -101 0
4 70 -97 0
9 70 -92 0
4 70 106 0
6 71 -79 0
3 71 105 0
3 71 113 0
10 72 -113 0
9 72 -110 0
5 73 75 0
5 73 76 0
6 74 -113 0
6 74 114 0
8 75 -118 0
2 75 91 0
2 75 96 0
10 76 -99 0
5 76 -98 0
9 76 -97 0
3 76 -80 0
10 77 -107 0
8 77 -105 0
4 77 83 0
2 77 100 0
1 77 112 0
10 77 114 0
3 77 120 0
3 78 -119 0
8 78 79 0
8 78 87 0
9 78 89 0
3 78 90 0
2 78 96 0
7 78 103 0
7 78 104 0
6 80 -104 0
9 80 102 0
9 80 106 0
6 81 -117 0
8 81 -97 0
4 81 -92 0
9 81 84 0
3 81 89 0
9 81 97 0
7 81 119 0
4 82 -92 0
1 82 -86 0
7 83 -120 0
8 83 -91 0
9 83 99 0
8 83 120 0
8 84 -108 0
7 84 88 0
2 84 115 0
9 85 -106 0
7 85 100 0
2 85 106 0
2 86 -99 0
9 86 -94 0
9 86 101 0
9 87 -113 0
8 87 110 0
2 87 112 0
10 88 -100 0
5 88 -98 0
7 88 92 0
6 88 103 0
4 88 113 0
6 89 -112 0
2 89 -110 0
2 89 -95 0
10 89 95 0
1 89 112 0
4 90 -96 0
9 90 95 0
7 91 -111 0
7 91 -96 0
9 91 -94 0
4 91 107 0
5 92 -108 0
8 92 108 0
2 93 -116 0
2 93 118 0
5 94 117 0
4 95 100 0
2 95 113 0
2 96 98 0
5 97 98 0
3 98 -104 0
1 98 -102 0
3 99 -113 0
2 99 -102 0
8 99 110 0
4 100 -107 0
2 100 113 0
3 102 -104 0
2 102 120 0
7 103 106 0
6 103 111 0
7 103 118 0
8 104 -116 0
6 105 -119 0
7 105 109 0
8 105 119 0
9 106 -118 0
5 107 -116 0
5 107 113 0
6 108 -111 0
4 108 114 0
9 110 -119 0
10 111 116 0
2 112 -118 0
10 113 -119 0
2 115 118 0
